Route #1: 1 21 8 22 46 41 45 1 
Route #2: 1 1 42 39 23 31 40 12 24 1 
Route #3: 1 19 5 26 43 1 
Route #4: 1 17 35 10 6 48 30 33 49 11 14 1 
Route #5: 1 13 3 20 37 9 25 36 1 
Route #6: 1 38 44 7 27 16 1 
Route #7: 1 32 28 29 18 47 2 1 
Route #8: 1 15 34 4 1 

Cost 1547.98
Time 0.3798


 * Another infos *

 Iterations: 50 Time: 0.3798 sec - 0.0063 min - 0.0001 horas
0.0000 h 0.0063 min
Problem dimension: 50
